Normalized Data/p10_5_normalized_splitx10_0.vrp
NAME:p10_5_NORMALIZED_splitx10_
BEST_KNOWN: 0
COMMENT: 0
DIMENSION: 839
CAPACITY: 1000
EDGE_WEIGHT_FORMAT: FUNCTION
EDGE_WEIGHT_TYPE: EXACT_2D
NODE_COORD_SECTION
1 0.00000 0.00000
2 49 -17
3 49 -17
4 49 -17
5 49 -17
6 49 -17
7 49 -17
8 49 -17
9 -50 32
10 -50 32
11 -50 32
12 -50 32
13 -50 32
14 -12 21
15 -12 21
16 -44 27
17 -44 27
18 -44 27
19 -44 27
20 -42 -20
21 -42 -20
22 -13 49
23 -13 49
24 -13 49
25 -13 49
26 -13 49
27 -13 49
28 -13 49
29 -2 -28
30 -2 -28
31 -2 -28
32 -2 -28
33 -2 -28
34 17 -19
35 17 -19
36 17 -19
37 14 34
38 14 34
39 14 34
40 14 34
41 14 34
42 -14 6
43 -14 6
44 -14 6
45 -14 6
46 -14 6
47 -14 6
48 32 28
49 32 28
50 32 28
51 32 28
52 15 -48
53 15 -48
54 -14 -10
55 -14 -10
56 -14 -10
57 -24 -17
58 -24 -17
59 -24 -17
60 -24 -17
61 -24 -17
62 -24 -17
63 -24 -17
64 32 27
65 32 27
66 32 27
67 32 27
68 -34 41
69 -34 41
70 -34 41
71 -34 41
72 -34 41
73 8 -3
74 8 -3
75 8 -3
76 8 -3
77 8 -3
78 -22 12
79 -22 12
80 -22 12
81 -22 12
82 -22 12
83 -22 12
84 11 30
85 11 30
86 11 30
87 11 30
88 12 -27
89 12 -27
90 14 24
91 14 24
92 14 24
93 14 24
94 2 32
95 2 32
96 2 32
97 2 32
98 2 32
99 -39 -29
100 -39 -29
101 -39 -29
102 -39 -29
103 -39 -29
104 -39 -29
105 -44 35
106 -44 35
107 -44 35
108 -44 35
109 -44 35
110 29 26
111 29 26
112 29 26
113 29 26
114 29 26
115 29 26
116 29 26
117 2 30
118 2 30
119 2 30
120 -39 10
121 -39 10
122 7 -18
123 7 -18
124 7 -18
125 7 -18
126 7 -18
127 -22 38
128 -22 38
129 -22 38
130 -22 38
131 -22 38
132 -34 -25
133 -34 -25
134 -34 -25
135 11 -10
136 11 -10
137 11 -10
138 11 -10
139 11 -10
140 7 2
141 7 2
142 7 2
143 7 2
144 19 31
145 19 31
146 19 31
147 19 31
148 19 31
149 2 -19
150 2 -19
151 2 -19
152 2 -19
153 16 38
154 16 38
155 -35 47
156 -35 47
157 -35 47
158 -35 47
159 -35 47
160 -35 47
161 7 -7
162 7 -7
163 7 -7
164 7 -7
165 7 -7
166 11 36
167 11 36
168 11 36
169 11 36
170 -49 5
171 -49 5
172 -49 5
173 -49 5
174 -49 5
175 11 -37
176 11 -37
177 11 -37
178 -18 39
179 -18 39
180 -18 39
181 -18 39
182 -18 39
183 -11 50
184 -11 50
185 -11 50
186 -11 50
187 -11 50
188 21 -33
189 21 -33
190 21 -33
191 -20 39
192 -20 39
193 -20 39
194 24 -46
195 24 -46
196 24 -46
197 24 -46
198 -2 -26
199 -2 -26
200 -2 -26
201 18 -32
202 18 -32
203 18 -32
204 18 -32
205 5 -6
206 5 -6
207 5 -6
208 5 -6
209 25 34
210 -32 4
211 -32 4
212 -32 4
213 -32 4
214 -32 4
215 -32 4
216 -32 4
217 46 49
218 46 49
219 46 49
220 46 49
221 46 49
222 -41 41
223 -41 41
224 -41 41
225 -41 41
226 -41 41
227 -41 41
228 -13 -2
229 -13 -2
230 -13 -2
231 -13 -2
232 -21 30
233 -21 30
234 -21 30
235 -21 30
236 -21 30
237 -21 30
238 -2 46
239 -2 46
240 -2 46
241 -2 46
242 -2 46
243 -22 46
244 -22 46
245 -22 46
246 -22 46
247 -22 46
248 32 8
249 32 8
250 32 8
251 32 8
252 32 8
253 44 -23
254 44 -23
255 44 -23
256 44 -23
257 44 -23
258 25 33
259 25 33
260 25 33
261 25 33
262 25 33
263 -2 20
264 -2 20
265 -2 20
266 11 26
267 11 26
268 11 26
269 11 26
270 31 50
271 31 50
272 31 50
273 31 50
274 31 50
275 -10 33
276 -10 33
277 -10 33
278 -10 33
279 -10 33
280 0 -43
281 0 -43
282 0 -43
283 0 -43
284 -7 9
285 -7 9
286 -7 9
287 43 -47
288 43 -47
289 26 -11
290 26 -11
291 26 -11
292 26 -11
293 48 -34
294 48 -34
295 48 -34
296 48 -34
297 48 -34
298 48 -34
299 38 39
300 38 39
301 38 39
302 -18 -24
303 -18 -24
304 -18 -24
305 -18 -24
306 -18 -24
307 11 -44
308 11 -44
309 11 -44
310 11 -44
311 -2 -31
312 -2 -31
313 -2 -31
314 -2 -31
315 -2 -31
316 -2 -31
317 13 -48
318 13 -48
319 13 -48
320 13 -48
321 13 -48
322 16 -17
323 16 -17
324 16 -17
325 16 -17
326 16 -17
327 -42 20
328 -42 20
329 -42 20
330 -42 20
331 -42 20
332 -42 20
333 -36 -31
334 -36 -31
335 -36 -31
336 -36 -31
337 36 49
338 36 49
339 36 49
340 -39 -2
341 -39 -2
342 10 22
343 10 22
344 10 22
345 10 22
346 34 -27
347 34 -27
348 34 -27
349 10 -49
350 10 -49
351 10 -49
352 41 -11
353 41 -11
354 41 -11
355 41 45
356 41 45
357 41 45
358 41 45
359 41 45
360 -13 -1
361 -13 -1
362 -37 -6
363 -37 -6
364 -37 -6
365 -37 -6
366 -37 -6
367 -37 -6
368 -41 -14
369 -41 -14
370 -41 -14
371 -41 -14
372 -10 -3
373 -10 -3
374 -10 -3
375 -10 -3
376 -10 -3
377 -10 -3
378 -10 -3
379 42 -25
380 42 -25
381 42 -25
382 42 -25
383 42 -25
384 42 -25
385 42 -25
386 -2 -5
387 -2 -5
388 -2 -5
389 -42 -35
390 -42 -35
391 -42 -35
392 17 24
393 17 24
394 17 24
395 17 24
396 17 24
397 -27 16
398 -27 16
399 -27 16
400 -27 16
401 -14 -32
402 -14 -32
403 -14 -32
404 -14 -32
405 -14 -32
406 -14 -32
407 -14 -32
408 -8 -35
409 -8 -35
410 -8 -35
411 42 35
412 42 35
413 42 35
414 42 35
415 42 35
416 33 33
417 33 33
418 -8 -37
419 -8 -37
420 -8 -37
421 -8 -37
422 -8 -37
423 -8 -37
424 -46 -50
425 -46 -50
426 -46 -50
427 -46 -50
428 -46 -50
429 37 50
430 37 50
431 37 50
432 37 50
433 37 50
434 -11 -47
435 -11 -47
436 -11 -47
437 -11 -47
438 -11 -47
439 -11 -47
440 6 46
441 6 46
442 6 46
443 6 46
444 6 46
445 -14 -18
446 -14 -18
447 -14 -18
448 -26 -37
449 -26 -37
450 -26 -37
451 -26 -37
452 38 -40
453 38 -40
454 -34 46
455 -34 46
456 -34 46
457 -34 46
458 -34 46
459 -34 46
460 -44 25
461 -44 25
462 -44 25
463 -44 25
464 -44 25
465 -44 25
466 27 2
467 27 2
468 27 2
469 -36 -26
470 -36 -26
471 -36 -26
472 -39 41
473 -39 41
474 -39 41
475 -39 41
476 17 22
477 17 22
478 17 22
479 17 22
480 1 -49
481 1 -49
482 1 -49
483 1 -49
484 1 -49
485 -50 3
486 -50 3
487 35 5
488 35 5
489 35 5
490 35 5
491 35 5
492 -4 -16
493 -4 -16
494 -4 -16
495 -4 -16
496 -4 -16
497 -15 3
498 -15 3
499 -15 3
500 -15 3
501 9 -12
502 9 -12
503 9 -12
504 9 -12
505 9 -12
506 23 39
507 23 39
508 23 39
509 -37 6
510 -37 6
511 -37 6
512 -12 -37
513 -12 -37
514 -12 -37
515 -12 -37
516 -12 -37
517 -12 -37
518 25 25
519 25 25
520 -42 -13
521 -42 -13
522 -42 -13
523 -42 -13
524 -42 -13
525 -42 -13
526 -42 -13
527 -34 -11
528 -34 -11
529 -34 -11
530 -34 -11
531 -34 -11
532 -34 -11
533 25 21
534 25 21
535 25 21
536 25 21
537 28 5
538 28 5
539 28 5
540 9 36
541 9 36
542 9 36
543 9 36
544 9 36
545 9 36
546 20 -5
547 20 -5
548 20 -5
549 20 -5
550 20 -5
551 20 -5
552 0 -5
553 0 -5
554 0 -5
555 0 -5
556 0 -5
557 0 -5
558 -24 35
559 -24 35
560 -24 35
561 -24 35
562 -29 -1
563 -29 -1
564 -29 -1
565 11 18
566 11 18
567 11 18
568 11 18
569 11 18
570 3 -11
571 3 -11
572 3 -11
573 -42 -3
574 -42 -3
575 -42 -3
576 -42 -3
577 26 -24
578 26 -24
579 -50 -5
580 -50 -5
581 -50 -5
582 40 0
583 40 0
584 40 0
585 40 0
586 40 0
587 40 0
588 40 0
589 49 -23
590 8 32
591 8 32
592 8 32
593 8 32
594 33 -40
595 33 -40
596 2 -39
597 2 -39
598 2 -39
599 2 -39
600 2 -39
601 -8 -46
602 -8 -46
603 -8 -46
604 -8 -46
605 -8 -46
606 -8 -46
607 -13 29
608 -13 29
609 -13 29
610 -13 29
611 40 7
612 40 7
613 40 7
614 40 7
615 40 7
616 -50 40
617 -50 40
618 -46 -36
619 -46 -36
620 -46 -36
621 -46 -36
622 -46 -36
623 -46 -36
624 17 -24
625 17 -24
626 13 7
627 13 7
628 13 7
629 13 7
630 13 7
631 13 7
632 26 -49
633 26 -49
634 26 -49
635 26 -49
636 26 -49
637 26 -49
638 -14 50
639 -14 50
640 -14 50
641 -14 50
642 42 -30
643 42 -30
644 42 -30
645 42 -30
646 42 -30
647 -1 13
648 -1 13
649 -1 13
650 -1 13
651 -1 13
652 -43 0
653 -43 0
654 -43 0
655 -43 0
656 -25 33
657 -25 33
658 -25 33
659 -25 33
660 -25 33
661 -50 -47
662 -50 -47
663 -49 -3
664 -49 -3
665 -49 -3
666 -49 -3
667 6 49
668 6 49
669 40 -22
670 40 -22
671 40 -22
672 -32 -49
673 -32 -49
674 -32 -49
675 -32 -49
676 -32 -49
677 -40 48
678 -40 48
679 -40 48
680 -46 -42
681 -46 -42
682 -19 29
683 -19 29
684 -19 29
685 -19 29
686 -19 29
687 11 -45
688 11 -45
689 11 -45
690 11 -45
691 11 -45
692 11 -45
693 11 -45
694 40 -6
695 40 -6
696 40 -6
697 40 -6
698 40 -6
699 7 -19
700 7 -19
701 45 36
702 45 36
703 45 36
704 -24 36
705 -24 36
706 25 25
707 25 25
708 25 25
709 -26 24
710 -26 24
711 -26 24
712 -26 24
713 -16 -4
714 -16 -4
715 -16 -4
716 33 3
717 33 3
718 33 3
719 -22 -43
720 -22 -43
721 -22 -43
722 -22 22
723 -22 22
724 -22 22
725 -2 -18
726 -2 -18
727 -2 -18
728 33 -17
729 33 -17
730 33 -17
731 33 -17
732 33 -17
733 -6 -4
734 -6 -4
735 -6 -4
736 -6 -4
737 -6 -4
738 33 -7
739 33 -7
740 33 -7
741 33 -7
742 33 -7
743 32 -29
744 32 -29
745 32 -29
746 32 -29
747 32 -29
748 32 -29
749 1 27
750 1 27
751 1 27
752 1 27
753 1 27
754 19 -50
755 19 -50
756 19 -50
757 11 6
758 11 6
759 11 6
760 -21 1
761 -21 1
762 -21 1
763 -21 1
764 -49 -30
765 -49 -30
766 -49 -30
767 -49 -30
768 -49 -30
769 -49 -30
770 49 -38
771 49 -38
772 49 -38
773 27 -49
774 27 -49
775 27 -49
776 27 -49
777 27 -49
778 27 -49
779 27 -49
780 12 -29
781 12 -29
782 -31 -31
783 -31 -31
784 -31 -31
785 50 -29
786 50 -29
787 50 -29
788 28 -33
789 28 -33
790 -50 -41
791 -50 -41
792 -50 -41
793 42 34
794 42 34
795 42 34
796 42 34
797 42 34
798 42 34
799 11 49
800 11 49
801 11 49
802 11 49
803 11 49
804 11 49
805 4 25
806 4 25
807 4 25
808 4 25
809 4 25
810 4 25
811 -6 12
812 -6 12
813 -18 -48
814 -18 -48
815 -18 -48
816 -18 -48
817 -18 -48
818 -18 -48
819 5 40
820 5 40
821 5 40
822 -40 -14
823 -40 -14
824 -40 -14
825 -40 -14
826 -15 -6
827 -15 -6
828 -15 -6
829 -15 -6
830 -15 -6
831 16 -15
832 16 -15
833 16 -15
834 -3 27
835 -3 27
836 -3 27
837 -10 -40
838 -10 -40
839 -10 -40
DEMAND_SECTION
1 0
2 200
3 100
4 50
5 10
6 10
7 10
8 10
9 200
10 50
11 10
12 10
13 10
14 200
15 50
16 200
17 10
18 10
19 10
20 200
21 50
22 200
23 100
24 50
25 10
26 10
27 10
28 10
29 200
30 100
31 10
32 10
33 10
34 200
35 10
36 10
37 200
38 100
39 10
40 10
41 10
42 100
43 50
44 10
45 10
46 10
47 10
48 100
49 50
50 10
51 10
52 100
53 50
54 200
55 200
56 100
57 200
58 100
59 50
60 10
61 10
62 10
63 10
64 200
65 50
66 10
67 10
68 200
69 200
70 10
71 10
72 10
73 200
74 50
75 10
76 10
77 10
78 200
79 200
80 10
81 10
82 10
83 10
84 200
85 200
86 50
87 10
88 200
89 200
90 200
91 50
92 10
93 10
94 100
95 50
96 10
97 10
98 10
99 100
100 50
101 10
102 10
103 10
104 10
105 100
106 50
107 10
108 10
109 10
110 200
111 200
112 50
113 10
114 10
115 10
116 10
117 200
118 50
119 10
120 200
121 100
122 100
123 10
124 10
125 10
126 10
127 100
128 50
129 10
130 10
131 10
132 200
133 200
134 10
135 100
136 50
137 10
138 10
139 10
140 200
141 100
142 10
143 10
144 200
145 200
146 10
147 10
148 10
149 200
150 50
151 10
152 10
153 200
154 200
155 200
156 200
157 10
158 10
159 10
160 10
161 200
162 10
163 10
164 10
165 10
166 200
167 100
168 10
169 10
170 200
171 100
172 50
173 10
174 10
175 200
176 200
177 50
178 200
179 200
180 50
181 10
182 10
183 200
184 200
185 50
186 10
187 10
188 200
189 200
190 50
191 200
192 100
193 50
194 100
195 10
196 10
197 10
198 200
199 100
200 10
201 200
202 200
203 50
204 10
205 100
206 50
207 10
208 10
209 200
210 200
211 100
212 50
213 10
214 10
215 10
216 10
217 100
218 50
219 10
220 10
221 10
222 200
223 200
224 10
225 10
226 10
227 10
228 200
229 10
230 10
231 10
232 200
233 100
234 50
235 10
236 10
237 10
238 200
239 200
240 50
241 10
242 10
243 200
244 200
245 10
246 10
247 10
248 200
249 10
250 10
251 10
252 10
253 200
254 200
255 50
256 10
257 10
258 200
259 10
260 10
261 10
262 10
263 200
264 200
265 10
266 200
267 100
268 10
269 10
270 100
271 50
272 10
273 10
274 10
275 200
276 50
277 10
278 10
279 10
280 200
281 200
282 50
283 10
284 200
285 100
286 10
287 200
288 10
289 200
290 100
291 10
292 10
293 200
294 200
295 10
296 10
297 10
298 10
299 200
300 200
301 100
302 100
303 10
304 10
305 10
306 10
307 100
308 50
309 10
310 10
311 200
312 100
313 10
314 10
315 10
316 10
317 200
318 200
319 50
320 10
321 10
322 100
323 50
324 10
325 10
326 10
327 100
328 50
329 10
330 10
331 10
332 10
333 200
334 200
335 50
336 10
337 200
338 100
339 50
340 200
341 10
342 200
343 100
344 50
345 10
346 100
347 50
348 10
349 200
350 200
351 10
352 100
353 50
354 10
355 200
356 200
357 10
358 10
359 10
360 200
361 50
362 200
363 200
364 50
365 10
366 10
367 10
368 100
369 10
370 10
371 10
372 200
373 200
374 50
375 10
376 10
377 10
378 10
379 200
380 200
381 50
382 10
383 10
384 10
385 10
386 200
387 10
388 10
389 200
390 100
391 10
392 200
393 100
394 10
395 10
396 10
397 200
398 100
399 50
400 10
401 200
402 200
403 50
404 10
405 10
406 10
407 10
408 200
409 100
410 50
411 100
412 50
413 10
414 10
415 10
416 200
417 50
418 200
419 50
420 10
421 10
422 10
423 10
424 200
425 50
426 10
427 10
428 10
429 100
430 10
431 10
432 10
433 10
434 200
435 200
436 50
437 10
438 10
439 10
440 200
441 200
442 50
443 10
444 10
445 100
446 50
447 10
448 200
449 200
450 10
451 10
452 200
453 100
454 200
455 100
456 10
457 10
458 10
459 10
460 200
461 200
462 50
463 10
464 10
465 10
466 200
467 100
468 50
469 200
470 100
471 50
472 200
473 100
474 50
475 10
476 200
477 100
478 50
479 10
480 100
481 10
482 10
483 10
484 10
485 200
486 200
487 200
488 10
489 10
490 10
491 10
492 200
493 10
494 10
495 10
496 10
497 200
498 200
499 10
500 10
501 200
502 200
503 50
504 10
505 10
506 100
507 10
508 10
509 200
510 50
511 10
512 200
513 100
514 10
515 10
516 10
517 10
518 200
519 50
520 200
521 100
522 50
523 10
524 10
525 10
526 10
527 200
528 50
529 10
530 10
531 10
532 10
533 200
534 200
535 10
536 10
537 200
538 200
539 50
540 200
541 50
542 10
543 10
544 10
545 10
546 200
547 100
548 10
549 10
550 10
551 10
552 100
553 50
554 10
555 10
556 10
557 10
558 200
559 100
560 50
561 10
562 200
563 100
564 10
565 200
566 100
567 10
568 10
569 10
570 200
571 200
572 50
573 200
574 10
575 10
576 10
577 200
578 50
579 200
580 200
581 100
582 200
583 100
584 50
585 10
586 10
587 10
588 10
589 200
590 200
591 10
592 10
593 10
594 200
595 10
596 200
597 100
598 50
599 10
600 10
601 200
602 200
603 10
604 10
605 10
606 10
607 200
608 200
609 50
610 10
611 100
612 50
613 10
614 10
615 10
616 200
617 100
618 200
619 50
620 10
621 10
622 10
623 10
624 200
625 200
626 200
627 100
628 10
629 10
630 10
631 10
632 200
633 200
634 10
635 10
636 10
637 10
638 200
639 100
640 10
641 10
642 200
643 200
644 10
645 10
646 10
647 200
648 200
649 50
650 10
651 10
652 200
653 50
654 10
655 10
656 200
657 50
658 10
659 10
660 10
661 200
662 200
663 200
664 100
665 10
666 10
667 200
668 10
669 100
670 50
671 10
672 200
673 200
674 10
675 10
676 10
677 200
678 200
679 10
680 200
681 100
682 200
683 100
684 50
685 10
686 10
687 200
688 100
689 50
690 10
691 10
692 10
693 10
694 200
695 200
696 50
697 10
698 10
699 100
700 50
701 200
702 100
703 50
704 100
705 50
706 200
707 10
708 10
709 200
710 100
711 10
712 10
713 200
714 50
715 10
716 200
717 100
718 10
719 100
720 10
721 10
722 200
723 50
724 10
725 200
726 100
727 50
728 200
729 200
730 50
731 10
732 10
733 100
734 10
735 10
736 10
737 10
738 200
739 50
740 10
741 10
742 10
743 200
744 200
745 50
746 10
747 10
748 10
749 200
750 50
751 10
752 10
753 10
754 200
755 100
756 50
757 200
758 10
759 10
760 200
761 200
762 50
763 10
764 100
765 50
766 10
767 10
768 10
769 10
770 200
771 200
772 100
773 200
774 200
775 50
776 10
777 10
778 10
779 10
780 200
781 50
782 200
783 200
784 50
785 200
786 200
787 10
788 200
789 100
790 200
791 10
792 10
793 200
794 200
795 10
796 10
797 10
798 10
799 200
800 100
801 50
802 10
803 10
804 10
805 200
806 200
807 10
808 10
809 10
810 10
811 200
812 50
813 200
814 100
815 10
816 10
817 10
818 10
819 200
820 50
821 10
822 200
823 50
824 10
825 10
826 100
827 10
828 10
829 10
830 10
831 200
832 100
833 50
834 200
835 200
836 10
837 200
838 10
839 10
DEPOT_SECTION
1
-1
EOF