Normalized Data/p10_5_normalized_splitx10_0.sol
838 -13 834 833 262 263 -14 128 126 127 129 130 192 190 180 179 178 181 177 -15 16 17 18 9 12 8 10 11 616 615 106 108 104 107 105 -20 19 763 768 764 766 765 767 617 619 620 622 621 390 388 389 335 -26 25 22 21 27 24 23 640 638 637 639 274 277 278 276 275 -36 39 40 38 37 166 167 165 168 543 540 544 539 541 542 -42 43 46 41 498 499 497 496 359 227 228 -44 45 326 331 327 330 329 328 464 459 462 463 461 460 399 397 396 -49 47 217 218 216 219 220 430 431 428 432 429 338 337 336 270 271 272 273 269 566 568 -53 55 54 828 829 825 827 826 713 712 714 -57 60 59 61 62 56 470 468 133 132 131 -58 103 102 101 98 100 99 679 680 672 673 674 671 675 449 450 -65 64 66 298 299 300 357 356 354 358 355 -68 474 473 471 472 223 221 224 226 225 222 -70 71 67 69 677 676 678 157 158 453 455 458 454 457 456 -73 72 289 288 291 550 545 548 547 139 141 -75 74 76 290 669 255 254 256 588 7 5 3 6 2 4 1 352 351 353 738 -79 81 82 398 120 119 651 572 575 340 339 -80 78 77 711 710 708 709 721 722 723 -87 88 779 623 624 -92 91 90 89 393 391 392 395 394 477 475 478 476 -115 110 109 112 114 111 113 63 48 50 416 415 -124 121 125 123 122 699 698 35 34 33 325 324 323 321 322 830 831 -137 136 138 770 771 769 297 296 292 294 295 293 643 645 644 -140 142 532 534 535 533 517 518 707 706 705 -145 147 144 146 143 506 505 507 208 259 258 261 260 257 -159 155 156 154 244 242 245 246 243 191 -160 161 163 134 135 503 502 504 500 501 205 204 206 -164 162 746 742 743 788 189 187 188 -172 170 173 171 169 485 484 652 654 653 562 -184 183 185 186 182 238 237 241 239 240 835 264 -193 194 196 631 632 633 774 775 777 772 773 -195 778 776 635 634 636 753 754 755 51 52 692 691 688 686 309 307 306 308 -197 198 199 28 32 29 31 30 149 151 148 150 571 -202 201 203 200 175 174 176 780 -207 787 593 594 286 287 452 451 744 747 745 -214 213 210 212 215 663 662 665 664 580 579 578 574 573 230 229 -231 234 704 703 560 558 559 557 659 658 656 655 657 -233 236 235 232 683 682 681 685 684 607 606 609 608 -250 248 249 251 247 610 612 611 614 613 490 488 486 487 489 716 715 717 -266 265 267 268 83 84 85 86 804 806 -285 284 283 811 810 649 650 646 647 -305 304 303 301 302 448 447 718 719 720 816 814 812 817 815 813 -313 312 315 314 310 311 417 420 422 421 418 419 408 407 409 -343 342 341 567 565 564 626 630 628 757 758 756 -344 152 153 799 800 798 803 802 801 667 666 -346 347 345 641 642 786 784 785 384 381 -349 350 348 316 320 318 317 319 689 690 687 -360 561 563 363 362 365 364 366 361 526 527 -376 372 375 374 377 373 371 733 732 734 736 735 385 552 551 554 555 -378 379 382 383 380 252 253 670 668 -387 386 402 433 438 437 435 436 434 604 600 605 603 601 602 -400 406 403 401 405 404 512 515 516 513 514 511 838 837 836 -413 411 414 412 410 700 702 701 796 792 795 797 794 793 629 627 -423 426 425 424 427 660 661 789 791 790 618 -444 446 445 823 822 821 824 369 368 367 370 520 522 524 521 519 523 525 531 528 529 530 -465 466 467 536 538 537 625 -469 334 333 332 782 781 783 -493 492 491 495 494 725 726 724 569 570 -508 509 510 211 209 760 762 759 761 -546 549 695 694 696 697 693 586 587 585 583 582 581 584 -556 553 281 279 282 280 483 481 479 482 480 597 595 598 596 599 -590 589 591 592 439 440 441 442 443 819 818 820 -648 750 752 751 748 749 116 118 117 97 95 96 93 94 808 809 805 807 -739 741 740 737 729 731 730 727 728 577 576 832 0 





OBJ=
5861.339
BEST_KNOWN=
0.000